; benchmark generated from python API
(set-info :status unknown)
(declare-fun x_month () Int)
(declare-fun x_day () Int)
(declare-fun x_year () Int)
(assert
 (>= x_month 1))
(assert
 (<= x_month 12))
(assert
 (>= x_day 1))
(assert
 (<= x_day 31))
(assert
 (let (($x230 (<= x_day 28)))
 (let (($x183 (<= x_day 29)))
 (let (($x221 (= (mod x_year 400) 0)))
 (let (($x579 (= (mod x_year 4) 0)))
 (let (($x512 (ite (or (and $x579 (and (distinct (mod x_year 100) 0) true)) $x221) $x183 $x230)))
 (let (($x214 (= x_month 2)))
 (ite $x214 $x512 true))))))))
(assert
 (let (($x511 (<= x_day 30)))
 (let (($x523 (or (= x_month 4) (= x_month 6) (= x_month 9) (= x_month 11))))
 (ite $x523 $x511 true))))
(assert
 (let (($x113 (= x_year 2023)))
 (let (($x232 (and $x113 (or (> x_month 1) (and (= x_month 1) (>= x_day 31))))))
 (or (> x_year 2023) $x232))))
(assert
 (let (($x29 (or (and (= (mod 2000 4) 0) (and (distinct (mod 2000 100) 0) true)) (= (mod 2000 400) 0))))
(let ((?x36 (ite (= 3 2) (ite $x29 31 31) (ite (= 3 1) (ite $x29 0 0) 0))))
(let ((?x46 (ite (= 3 4) (ite $x29 91 90) (ite (= 3 3) (ite $x29 60 59) ?x36))))
(let ((?x58 (ite (= 3 6) (ite $x29 152 151) (ite (= 3 5) (ite $x29 121 120) ?x46))))
(let ((?x70 (ite (= 3 8) (ite $x29 213 212) (ite (= 3 7) (ite $x29 182 181) ?x58))))
(let ((?x82 (ite (= 3 10) (ite $x29 274 273) (ite (= 3 9) (ite $x29 244 243) ?x70))))
(let ((?x94 (ite (= 3 12) (ite $x29 335 334) (ite (= 3 11) (ite $x29 305 304) ?x82))))
(let ((?x16 (- (+ (* 365 (- 2000 1)) (div (- 2000 1) 4)) (div (- 2000 1) 100))))
(let ((?x97 (+ (+ (+ ?x16 (div (- 2000 1) 400)) ?x94) (- 1 1))))
(let ((?x646 (+ (mod (- (+ x_month (+ (* 0 12) 1)) 1) 12) 1)))
(let ((?x245 (ite (or (= ?x646 4) (= ?x646 6) (= ?x646 9) (= ?x646 11)) 30 31)))
(let ((?x649 (+ 0 (div (- (+ x_month (+ (* 0 12) 1)) 1) 12))))
(let ((?x338 (+ x_year ?x649)))
(let (($x498 (or (and (= (mod ?x338 4) 0) (and (distinct (mod ?x338 100) 0) true)) (= (mod ?x338 400) 0))))
(let ((?x510 (ite (= ?x646 2) (ite $x498 29 28) ?x245)))
(let ((?x598 (ite (< x_day 1) 1 (ite (> x_day ?x510) ?x510 x_day))))
(let (($x634 (and (= (mod (+ ?x338 (* (div 0 146097) 400)) 4) 0) (and (distinct (mod (+ ?x338 (* (div 0 146097) 400)) 100) 0) true))))
(let (($x239 (or $x634 (= (mod (+ ?x338 (* (div 0 146097) 400)) 400) 0))))
(let ((?x215 (ite (= 2 ?x646) (ite $x239 31 31) (ite (= 1 ?x646) (ite $x239 0 0) 0))))
(let ((?x168 (ite (= 4 ?x646) (ite $x239 91 90) (ite (= 3 ?x646) (ite $x239 60 59) ?x215))))
(let ((?x450 (ite (= 6 ?x646) (ite $x239 152 151) (ite (= 5 ?x646) (ite $x239 121 120) ?x168))))
(let ((?x173 (ite (= 8 ?x646) (ite $x239 213 212) (ite (= 7 ?x646) (ite $x239 182 181) ?x450))))
(let ((?x685 (ite (= 10 ?x646) (ite $x239 274 273) (ite (= 9 ?x646) (ite $x239 244 243) ?x173))))
(let ((?x422 (ite (= 12 ?x646) (ite $x239 335 334) (ite (= 11 ?x646) (ite $x239 305 304) ?x685))))
(let ((?x399 (+ (* 365 (- (+ ?x338 (* (div 0 146097) 400)) 1)) (div (- (+ ?x338 (* (div 0 146097) 400)) 1) 4))))
(let ((?x699 (+ (- ?x399 (div (- (+ ?x338 (* (div 0 146097) 400)) 1) 100)) (div (- (+ ?x338 (* (div 0 146097) 400)) 1) 400))))
(let ((?x521 (+ (+ (- (+ (+ ?x699 ?x422) (- ?x598 1)) ?x97) (mod 0 146097)) ?x97)))
(let ((?x736 (mod ?x521 146097)))
(let ((?x459 (div ?x736 36524)))
(let ((?x432 (ite (<= 4 ?x459) 3 ?x459)))
(let ((?x756 (- ?x736 (* ?x432 36524))))
(let ((?x247 (mod ?x756 1461)))
(let ((?x672 (div ?x247 365)))
(let ((?x630 (ite (<= 4 ?x672) 3 ?x672)))
(let ((?x293 (+ (+ (* (div ?x521 146097) 400) (* ?x432 100)) (* (div ?x756 1461) 4))))
(let ((?x378 (+ (+ ?x293 ?x630) 1)))
(let (($x228 (or (and (= (mod ?x378 4) 0) (and (distinct (mod ?x378 100) 0) true)) (= (mod ?x378 400) 0))))
(let ((?x747 (- ?x247 (* ?x630 365))))
(let ((?x218 (ite $x228 31 31)))
(let (($x669 (>= ?x747 ?x218)))
(let ((?x277 (ite $x669 (+ (- ?x747 ?x218) 1) (+ (- ?x747 (ite $x228 0 0)) 1))))
(let ((?x739 (ite $x228 60 59)))
(let (($x728 (>= ?x747 ?x739)))
(let ((?x749 (ite $x228 91 90)))
(let (($x411 (>= ?x747 ?x749)))
(let ((?x961 (ite $x411 (+ (- ?x747 ?x749) 1) (ite $x728 (+ (- ?x747 ?x739) 1) ?x277))))
(let ((?x318 (ite $x228 121 120)))
(let (($x686 (>= ?x747 ?x318)))
(let ((?x624 (ite $x228 152 151)))
(let (($x296 (>= ?x747 ?x624)))
(let ((?x746 (ite $x296 (+ (- ?x747 ?x624) 1) (ite $x686 (+ (- ?x747 ?x318) 1) ?x961))))
(let ((?x182 (ite $x228 182 181)))
(let (($x331 (>= ?x747 ?x182)))
(let ((?x410 (ite $x228 213 212)))
(let (($x184 (>= ?x747 ?x410)))
(let ((?x471 (ite $x184 (+ (- ?x747 ?x410) 1) (ite $x331 (+ (- ?x747 ?x182) 1) ?x746))))
(let ((?x763 (ite $x228 244 243)))
(let (($x132 (>= ?x747 ?x763)))
(let ((?x762 (ite $x228 274 273)))
(let (($x558 (>= ?x747 ?x762)))
(let ((?x380 (ite $x558 (+ (- ?x747 ?x762) 1) (ite $x132 (+ (- ?x747 ?x763) 1) ?x471))))
(let ((?x171 (ite $x228 305 304)))
(let (($x116 (>= ?x747 ?x171)))
(let ((?x680 (ite $x228 335 334)))
(let (($x350 (>= ?x747 ?x680)))
(let ((?x137 (ite $x350 (+ (- ?x747 ?x680) 1) (ite $x116 (+ (- ?x747 ?x171) 1) ?x380))))
(let (($x455 (= 0 0)))
(let ((?x340 (ite $x686 5 (ite $x411 4 (ite $x728 3 (ite $x669 2 1))))))
(let ((?x419 (ite $x132 9 (ite $x184 8 (ite $x331 7 (ite $x296 6 ?x340))))))
(let ((?x543 (ite $x455 ?x646 (ite $x350 12 (ite $x116 11 (ite $x558 10 ?x419))))))
(let (($x584 (or (< ?x543 3) (and (= ?x543 3) (<= (ite $x455 ?x598 ?x137) 1)))))
(or (< (ite $x455 ?x338 ?x378) 2023) (and (= (ite $x455 ?x338 ?x378) 2023) $x584))))))))))))))))))))))))))))))))))))))))))))))))))))))))))))))))))))))))))
(check-sat)
